vasp                                    
   1.00000000000000     
     8.1334169999999997    0.0000000000000000    0.0000000000000000
     0.0000000000000000    8.1149090000000008    0.0000000000000000
     0.0000000000000000    0.0000000000000000    8.1149090000000008
   F    Li
    32    30
Direct
  0.0210653543014787  0.8259579816544199  0.5092131489878159
  0.2963232373322784  0.5210756810106273  0.5396466628323158
  0.3289691066487985  0.7299190886621415  0.7554629152823417
  0.9255333889537759  0.4771708104231772  0.7691810876352991
  0.5568805552539172  0.4573380789740008  0.7345356853333569
  0.7045221268257101  0.0292070255547606  0.9945872502289045
  0.7520787978634663  0.2630413877293757  0.2957469499748813
  0.4841317165278772 -0.0085870746140346  0.2478587879750714
  0.5023519664078764  0.2700372289080771 -0.0066536477654638
  0.0443307839362159  0.6911995416343667  0.9205547477475404
  0.6881735673490658  1.0191289129838188  0.4910296289465851
  0.5150247873675404  0.0714638849796934  0.7304537289912996
  0.4952047262530079  0.2620899427833393  0.4949049112647056
  0.7349469272558815  0.5465664945068864  1.0553904764578854
  0.6849851577345137  0.7732387331968049  0.2455526216947780
  0.5055361957015443  0.4571532383299624  0.2766383921549213
  0.5021012126795696  0.7897362293114487  0.9424155500811826
  0.8166400895078860  0.5589981383775590  0.4986471590651656
  0.8087200871918996  0.7906911245458779  0.8223008364412832
  0.8111911837845064  0.1995009436336252  0.6803791130866095
  1.0308249105287204  0.4549165655103667  0.2646509965003813
  0.5414291963604850  0.7344150287288391  0.5795254180531970
  0.2520338881238827  0.5088626610660105  0.0406305821935024
  0.2639730620119949  0.7552651422786654  0.2463391620588840
  0.9842644661404218  0.2692394715991143  0.9812356603428329
  0.2843334571110598 -0.0390191639486410  0.5051351731300388
  0.2238949221622785  0.2973037206245610  0.8197233198883335
  0.0335979848662413  0.9668319317697515  0.7919017889351724
  0.2542346828922586  0.1882843152324351  0.2298058883944604
  0.0697547066661511  0.2472048287772624  0.4991111626440424
 -0.0562445088578766  0.9554378301570857  0.2619554708458653
  0.2679977008389544  0.0100319433532990 -0.0220423554313740
  0.2558248877482405  0.2239706354197796  0.0159719851486466
  0.5385841541070079  0.5128494980643452  0.5130239862646225
  0.9816277197747598  1.0392764823309404  0.4993022500580088
  0.8281184203251977  0.7973318397004326  1.0466077737441155
  0.7633976425716181  0.5106064605140468  0.2796799253734484
  0.3365784673694422  0.7329497598808374  0.4926415352863880
  0.6961597864563445  0.2161152769624697  0.5101028879176480
  0.6963348718370148  0.6231200784043913  0.7201058967581798
  0.4802484085013132  0.7475109423256359  0.1819854486990883
  0.5103653201738803  0.4755993494158297 -0.0112394257655077
  0.1811721199219741  0.9622895427560260  0.2822073629718168
 -0.0345584287937981  0.2549613000289108  0.1900687935236869
  0.0063575649517351  0.2653637235856556  0.7296233719661889
  0.6674807602305035  0.9187711371657784  0.7408805312589348
  0.4845820524772608  0.2570777361063327  0.1992652039234238
  0.2034302027226212  0.8304575495924896  1.0291811911251758
 -0.0101057360136538  0.4562976038385050  0.4986219986348854
  0.9957673927746635  0.6798189809041234  0.7140199026264606
  0.2184696465817236  0.5735978672214871  0.8286999153765873
  0.2427814517473930  0.5192349451216969  0.2645144383486025
  0.7891125848159757  0.8058048741275987  0.4589899237684807
 -0.0049480483598999  0.4925556970907992  0.0131227474747394
  0.4818695627743852  0.0200833075833500 -0.0523282286764460
  0.7051713892433084  0.0277912384022588  0.2369389368617120
  0.7054175333974123  0.3229235649474304 -0.1477607003721593
  0.2882442427483055  0.2199239399286556  0.4522040617720053
  0.4865929011733046  1.0138188669374102  0.4586866477746789
  0.4322965982854109  0.2744691154414258  0.7498855417234270
  0.2739462751710672 -0.0506196787810903  0.7089117619271365
  0.9095424571261352  1.0719265278971157  0.9029052562177708
 
  0.11675070E-01 -0.43100385E-02  0.38320951E-02
  0.10806172E-01 -0.10988078E-01  0.76026812E-02
 -0.75186638E-02 -0.18218766E-01 -0.15968670E-01
  0.33377638E-02  0.10241710E-01  0.69507382E-02
  0.10788329E-01  0.19375632E-02 -0.58222074E-02
 -0.14699105E-01 -0.49518236E-02 -0.43221050E-02
 -0.15628985E-01 -0.39007219E-02  0.12922528E-01
 -0.97417831E-02  0.13486832E-01  0.34628172E-02
 -0.34721288E-02 -0.56522517E-02 -0.10485038E-02
 -0.43354295E-02 -0.10657345E-01  0.11208891E-01
  0.45375732E-03  0.28588276E-02 -0.33875421E-02
 -0.53258808E-02 -0.12778586E-01 -0.53440324E-02
 -0.58012945E-02 -0.14247674E-02  0.16897450E-02
 -0.13584104E-01  0.99803815E-02 -0.33944255E-02
 -0.48694458E-02 -0.63818094E-02 -0.98023513E-02
  0.66934649E-02  0.95580700E-02 -0.81109071E-03
  0.29680792E-02 -0.17908119E-01  0.33670652E-02
  0.85785979E-02 -0.84951897E-03 -0.15700805E-01
 -0.10775063E-01  0.65900892E-02  0.18667333E-01
 -0.19702981E-01  0.10040312E-01  0.87551770E-02
  0.29683124E-02  0.15915553E-01  0.90109756E-02
  0.15274149E-01  0.96623042E-02 -0.84656108E-02
  0.13524302E-01  0.44969542E-02  0.15056779E-03
  0.11333599E-01 -0.14226966E-01 -0.84636393E-02
  0.48086678E-02  0.10290204E-01 -0.44459191E-02
 -0.75234652E-02  0.35242625E-02  0.25974261E-02
  0.55701617E-02 -0.30138704E-03 -0.76120581E-02
 -0.13119939E-02  0.16798575E-01  0.50185408E-02
  0.99269085E-03 -0.10040866E-01  0.37165178E-04
 -0.28898994E-02 -0.10964932E-01 -0.67054484E-02
  0.16616348E-03  0.98413050E-02  0.11905721E-01
 -0.86187867E-02  0.85621586E-02 -0.43111593E-02
 -0.13995153E-01 -0.37023353E-02 -0.19177960E-01
  0.17822374E-01  0.91508399E-03 -0.95357438E-03
 -0.30913595E-02 -0.65920755E-02  0.11758333E-01
 -0.38691246E-02 -0.10846507E-01  0.20463572E-01
 -0.18774183E-01 -0.88831823E-02  0.40735313E-02
 -0.13050188E-01  0.21371207E-01 -0.94069229E-02
 -0.34243249E-03  0.18475124E-01 -0.80705664E-02
 -0.53651374E-02  0.63479778E-02 -0.43145266E-02
  0.16520110E-02 -0.18901367E-01  0.13718872E-01
  0.49753286E-02  0.17979679E-01  0.33142304E-02
  0.19117268E-02  0.50323052E-03 -0.79330012E-02
 -0.75448797E-02  0.80619619E-03  0.19289318E-02
  0.20630782E-02 -0.53571203E-02 -0.23293043E-01
 -0.19245143E-01  0.79479436E-02 -0.10391037E-01
  0.76944127E-02 -0.13677584E-01 -0.79201690E-02
  0.29816521E-02 -0.32183447E-03 -0.16080058E-02
  0.12867026E-01  0.88610446E-02 -0.12302546E-01
  0.20436699E-01  0.38965764E-02  0.28618583E-01
 -0.13463592E-01 -0.12625908E-01  0.11643516E-01
  0.25976507E-01 -0.20887905E-02 -0.18981351E-01
  0.41377571E-02 -0.24296782E-01  0.19026097E-01
  0.92271594E-03  0.13975994E-01  0.13399159E-01
  0.14440114E-01 -0.14518010E-01  0.38378394E-02
  0.10389147E-01  0.24298601E-01  0.68902669E-02
  0.23440873E-01  0.45023530E-02 -0.13021791E-01
  0.19330204E-01  0.25474184E-02  0.36548039E-02
 -0.18422520E-01 -0.13923246E-01 -0.25892417E-02
  0.25556000E-02 -0.16817767E-02 -0.40546783E-03
 -0.16075031E-02 -0.23679291E-01  0.10076139E-01
  0.15257173E-01  0.94513316E-03 -0.16300135E-01
 
           1
   1.00000000000000     
  0.11682294E-01 -0.19144309E-02 -0.20365486E-02  0.13657784E-01
  0.22500799E-01  0.82542686E+00  0.50968538E+00
  0.29765185E+00  0.51972162E+00  0.54058354E+00
  0.32804469E+00  0.72767399E+00  0.75349510E+00
  0.92594377E+00  0.47843290E+00  0.77003763E+00
  0.55820698E+00  0.45757684E+00  0.73381821E+00
  0.70271488E+00  0.28596812E-01  0.99405464E+00
  0.75015722E+00  0.26256070E+00  0.29733939E+00
  0.48293397E+00  0.99307491E+00  0.24828551E+00
  0.50192507E+00  0.26934070E+00  0.99321715E+00
  0.43797745E-01  0.68988624E+00  0.92193602E+00
  0.68822936E+00  0.19481206E-01  0.49061218E+00
  0.51436997E+00  0.69889180E-01  0.72979518E+00
  0.49449146E+00  0.26191437E+00  0.49511314E+00
  0.73327677E+00  0.54779638E+00  0.54972182E-01
  0.68438646E+00  0.77245230E+00  0.24434468E+00
  0.50635915E+00  0.45833108E+00  0.27653844E+00
  0.50246614E+00  0.78752941E+00  0.94283047E+00
  0.81769482E+00  0.55889345E+00  0.49671235E+00
  0.80739530E+00  0.79150322E+00  0.82460121E+00
  0.80876871E+00  0.20073821E+00  0.68145801E+00
  0.31189863E-01  0.45687784E+00  0.26576142E+00
  0.54330715E+00  0.73560571E+00  0.57848220E+00
  0.25369670E+00  0.50941682E+00  0.40649137E-01
  0.26536652E+00  0.75351195E+00  0.24529619E+00
  0.98485569E+00  0.27050753E+00  0.98068779E+00
  0.28340845E+00  0.96141513E+00  0.50545525E+00
  0.22457977E+00  0.29726658E+00  0.81878529E+00
  0.33436676E-01  0.96890202E+00  0.79252022E+00
  0.25435673E+00  0.18704698E+00  0.22981047E+00
  0.69399395E-01  0.24585362E+00  0.49828485E+00
  0.94377592E+00  0.95665057E+00  0.26342261E+00
  0.26693802E+00  0.11087058E-01  0.97742638E+00
  0.25410419E+00  0.22351440E+00  0.13608686E-01
  0.54077541E+00  0.51296226E+00  0.51290648E+00
  0.98124764E+00  0.38464141E-01  0.50075123E+00
  0.82764271E+00  0.79599522E+00  0.49129499E-01
  0.76108937E+00  0.50951179E+00  0.28018191E+00
  0.33497395E+00  0.73558333E+00  0.49148232E+00
  0.69611768E+00  0.21839197E+00  0.50910835E+00
  0.69567523E+00  0.62390234E+00  0.71957422E+00
  0.48045152E+00  0.74518173E+00  0.18367602E+00
  0.51097703E+00  0.47781498E+00  0.98916899E+00
  0.18140717E+00  0.96235156E+00  0.28122978E+00
  0.96451393E+00  0.25506065E+00  0.19030650E+00
  0.66112195E-02  0.26470357E+00  0.72675297E+00
  0.66511458E+00  0.91975056E+00  0.73960004E+00
  0.48552808E+00  0.25539225E+00  0.19828920E+00
  0.20379680E+00  0.83041789E+00  0.28983037E-01
  0.99147626E+00  0.45738955E+00  0.49710596E+00
  0.99828008E+00  0.68029916E+00  0.71754657E+00
  0.21681430E+00  0.57204198E+00  0.83013475E+00
  0.24597525E+00  0.51897754E+00  0.26217537E+00
  0.78962132E+00  0.80281078E+00  0.46133451E+00
  0.99516540E+00  0.49427796E+00  0.14773925E-01
  0.48364497E+00  0.18294254E-01  0.94814471E+00
  0.70644873E+00  0.30785554E-01  0.23778802E+00
  0.70829958E+00  0.32347839E+00  0.85063462E+00
  0.29062088E+00  0.22023786E+00  0.45265444E+00
  0.48432786E+00  0.12103106E-01  0.45836758E+00
  0.43261081E+00  0.27426187E+00  0.74983558E+00
  0.27374863E+00  0.94646232E+00  0.71015344E+00
  0.91141832E+00  0.72042997E-01  0.90089659E+00
  0.00000000E+00  0.00000000E+00  0.00000000E+00
  0.00000000E+00  0.00000000E+00  0.00000000E+00
  0.00000000E+00  0.00000000E+00  0.00000000E+00
  0.00000000E+00  0.00000000E+00  0.00000000E+00
  0.00000000E+00  0.00000000E+00  0.00000000E+00
  0.00000000E+00  0.00000000E+00  0.00000000E+00
  0.00000000E+00  0.00000000E+00  0.00000000E+00
  0.00000000E+00  0.00000000E+00  0.00000000E+00
  0.00000000E+00  0.00000000E+00  0.00000000E+00
  0.00000000E+00  0.00000000E+00  0.00000000E+00
  0.00000000E+00  0.00000000E+00  0.00000000E+00
  0.00000000E+00  0.00000000E+00  0.00000000E+00
  0.00000000E+00  0.00000000E+00  0.00000000E+00
  0.00000000E+00  0.00000000E+00  0.00000000E+00
  0.00000000E+00  0.00000000E+00  0.00000000E+00
  0.00000000E+00  0.00000000E+00  0.00000000E+00
  0.00000000E+00  0.00000000E+00  0.00000000E+00
  0.00000000E+00  0.00000000E+00  0.00000000E+00
  0.00000000E+00  0.00000000E+00  0.00000000E+00
  0.00000000E+00  0.00000000E+00  0.00000000E+00
  0.00000000E+00  0.00000000E+00  0.00000000E+00
  0.00000000E+00  0.00000000E+00  0.00000000E+00
  0.00000000E+00  0.00000000E+00  0.00000000E+00
  0.00000000E+00  0.00000000E+00  0.00000000E+00
  0.00000000E+00  0.00000000E+00  0.00000000E+00
  0.00000000E+00  0.00000000E+00  0.00000000E+00
  0.00000000E+00  0.00000000E+00  0.00000000E+00
  0.00000000E+00  0.00000000E+00  0.00000000E+00
  0.00000000E+00  0.00000000E+00  0.00000000E+00
  0.00000000E+00  0.00000000E+00  0.00000000E+00
  0.00000000E+00  0.00000000E+00  0.00000000E+00
  0.00000000E+00  0.00000000E+00  0.00000000E+00
  0.00000000E+00  0.00000000E+00  0.00000000E+00
  0.00000000E+00  0.00000000E+00  0.00000000E+00
  0.00000000E+00  0.00000000E+00  0.00000000E+00
  0.00000000E+00  0.00000000E+00  0.00000000E+00
  0.00000000E+00  0.00000000E+00  0.00000000E+00
  0.00000000E+00  0.00000000E+00  0.00000000E+00
  0.00000000E+00  0.00000000E+00  0.00000000E+00
  0.00000000E+00  0.00000000E+00  0.00000000E+00
  0.00000000E+00  0.00000000E+00  0.00000000E+00
  0.00000000E+00  0.00000000E+00  0.00000000E+00
  0.00000000E+00  0.00000000E+00  0.00000000E+00
  0.00000000E+00  0.00000000E+00  0.00000000E+00
  0.00000000E+00  0.00000000E+00  0.00000000E+00
  0.00000000E+00  0.00000000E+00  0.00000000E+00
  0.00000000E+00  0.00000000E+00  0.00000000E+00
  0.00000000E+00  0.00000000E+00  0.00000000E+00
  0.00000000E+00  0.00000000E+00  0.00000000E+00
  0.00000000E+00  0.00000000E+00  0.00000000E+00
  0.00000000E+00  0.00000000E+00  0.00000000E+00
  0.00000000E+00  0.00000000E+00  0.00000000E+00
  0.00000000E+00  0.00000000E+00  0.00000000E+00
  0.00000000E+00  0.00000000E+00  0.00000000E+00
  0.00000000E+00  0.00000000E+00  0.00000000E+00
  0.00000000E+00  0.00000000E+00  0.00000000E+00
  0.00000000E+00  0.00000000E+00  0.00000000E+00
  0.00000000E+00  0.00000000E+00  0.00000000E+00
  0.00000000E+00  0.00000000E+00  0.00000000E+00
  0.00000000E+00  0.00000000E+00  0.00000000E+00
  0.00000000E+00  0.00000000E+00  0.00000000E+00
  0.00000000E+00  0.00000000E+00  0.00000000E+00
  0.00000000E+00  0.00000000E+00  0.00000000E+00
  0.00000000E+00  0.00000000E+00  0.00000000E+00
  0.00000000E+00  0.00000000E+00  0.00000000E+00
  0.00000000E+00  0.00000000E+00  0.00000000E+00
  0.00000000E+00  0.00000000E+00  0.00000000E+00
  0.00000000E+00  0.00000000E+00  0.00000000E+00
  0.00000000E+00  0.00000000E+00  0.00000000E+00
  0.00000000E+00  0.00000000E+00  0.00000000E+00
  0.00000000E+00  0.00000000E+00  0.00000000E+00
  0.00000000E+00  0.00000000E+00  0.00000000E+00
  0.00000000E+00  0.00000000E+00  0.00000000E+00
  0.00000000E+00  0.00000000E+00  0.00000000E+00
  0.00000000E+00  0.00000000E+00  0.00000000E+00
  0.00000000E+00  0.00000000E+00  0.00000000E+00
  0.00000000E+00  0.00000000E+00  0.00000000E+00
  0.00000000E+00  0.00000000E+00  0.00000000E+00
  0.00000000E+00  0.00000000E+00  0.00000000E+00
  0.00000000E+00  0.00000000E+00  0.00000000E+00
  0.00000000E+00  0.00000000E+00  0.00000000E+00
  0.00000000E+00  0.00000000E+00  0.00000000E+00
  0.00000000E+00  0.00000000E+00  0.00000000E+00
  0.00000000E+00  0.00000000E+00  0.00000000E+00
  0.00000000E+00  0.00000000E+00  0.00000000E+00
  0.00000000E+00  0.00000000E+00  0.00000000E+00
  0.00000000E+00  0.00000000E+00  0.00000000E+00
  0.00000000E+00  0.00000000E+00  0.00000000E+00
  0.00000000E+00  0.00000000E+00  0.00000000E+00
  0.00000000E+00  0.00000000E+00  0.00000000E+00
  0.00000000E+00  0.00000000E+00  0.00000000E+00
  0.00000000E+00  0.00000000E+00  0.00000000E+00
  0.00000000E+00  0.00000000E+00  0.00000000E+00
  0.00000000E+00  0.00000000E+00  0.00000000E+00
  0.00000000E+00  0.00000000E+00  0.00000000E+00
  0.00000000E+00  0.00000000E+00  0.00000000E+00
  0.00000000E+00  0.00000000E+00  0.00000000E+00
  0.00000000E+00  0.00000000E+00  0.00000000E+00
  0.00000000E+00  0.00000000E+00  0.00000000E+00
  0.00000000E+00  0.00000000E+00  0.00000000E+00
  0.00000000E+00  0.00000000E+00  0.00000000E+00
  0.00000000E+00  0.00000000E+00  0.00000000E+00
  0.00000000E+00  0.00000000E+00  0.00000000E+00
  0.00000000E+00  0.00000000E+00  0.00000000E+00
  0.00000000E+00  0.00000000E+00  0.00000000E+00
  0.00000000E+00  0.00000000E+00  0.00000000E+00
  0.00000000E+00  0.00000000E+00  0.00000000E+00
  0.00000000E+00  0.00000000E+00  0.00000000E+00
  0.00000000E+00  0.00000000E+00  0.00000000E+00
  0.00000000E+00  0.00000000E+00  0.00000000E+00
  0.00000000E+00  0.00000000E+00  0.00000000E+00
  0.00000000E+00  0.00000000E+00  0.00000000E+00
  0.00000000E+00  0.00000000E+00  0.00000000E+00
  0.00000000E+00  0.00000000E+00  0.00000000E+00
  0.00000000E+00  0.00000000E+00  0.00000000E+00
  0.00000000E+00  0.00000000E+00  0.00000000E+00
  0.00000000E+00  0.00000000E+00  0.00000000E+00
  0.00000000E+00  0.00000000E+00  0.00000000E+00
  0.00000000E+00  0.00000000E+00  0.00000000E+00
  0.00000000E+00  0.00000000E+00  0.00000000E+00
  0.00000000E+00  0.00000000E+00  0.00000000E+00
  0.00000000E+00  0.00000000E+00  0.00000000E+00
  0.00000000E+00  0.00000000E+00  0.00000000E+00
  0.00000000E+00  0.00000000E+00  0.00000000E+00
