SYSTEM = LiF

#GENERAL
#ISTART = 0
#ICHARG = 2
PREC = Normal
ALGO = Normal
IALGO = 48
ISMEAR = 0
SIGMA = 0.1
ENCUT = 520
EDIFF = 1E-5
#EDIFFG = -0.02
#ZVAL = 318
ADDGRID= T

#MD
IBRION = 0
SMASS = 1
MDALGO = 2
ISIF = 2
POTIM = 1
NSW = 200
TEBEG = 1600

#OTHERS
NELMIN = 4
LWAVE = F
LCHARG = F
LREAL = A
NWRITE = 0
NCORE = 4
