vasp
1.0
8.133417 0.       0.      
0.       8.114909 0.      
0.       0.       8.114909
F Li 
32 30 
C
0.37271177 6.87483727 3.42279252
1.23054365 4.59523744 4.41384922
2.60804223 6.65734364 6.5883325 
-0.62402704  3.69426458  5.76429558
3.92324974 3.93737737 6.74850993
6.18412095 8.18215219 8.05228739
6.12877087 1.72995546 2.44696449
4.24457505 8.34537736 2.22045745
4.05655957 2.34458347 8.75968361
 0.15836742  5.48982022 -0.73129744
6.04560741 7.90645445 3.8495528 
4.23890687 0.68419598 6.22961407
4.15380867 2.45597697 3.94554757
6.10179534 3.8010612  7.76809103
5.81315773 5.52218185 1.34303591
3.54503832 4.72815243 2.08456586
 4.63064329  6.52127905 -0.12653446
6.00848025 3.9806271  3.58505058
6.2685006  6.11091203 6.04127652
6.75250407 0.74131382 6.34561342
-0.265877    4.20964071  2.17641728
3.76087725 5.86074334 4.69653774
2.1132458  4.24934525 8.27697891
2.16614593 6.27770133 2.19163111
-0.038207    2.09282449  8.0255741 
2.48054887 8.55287441 4.07792754
2.08175488 2.37976236 6.17812667
 1.18871998 -0.51833023  5.61115756
1.70015026 2.04343477 2.14065593
0.07739825 1.64549812 4.32930513
0.09552576 7.81796972 1.18197048
2.07093979 8.50537491 8.5624414 
2.28842691 2.24219818 0.42441803
3.55273988 4.56337929 3.75156405
-0.32911823  8.02411581  4.83760969
6.32253138 5.59742361 7.82786102
6.11660127 3.62316594 1.64925272
1.69522392 6.48684801 4.48479379
6.00268737 2.18536485 4.42110732
5.45075893 4.57698468 5.94202493
4.11346315 6.41121723 2.16661535
4.09707253 4.00744354 8.3331837 
 1.7962188  -0.17259422  2.23223258
0.0477181  1.68750707 1.62386076
0.24386026 2.10529772 6.0770622 
5.31442925 7.61046238 5.94617522
4.45371201 2.2807159  2.48186147
1.67739064 6.51893475 8.00689637
0.06519869 3.37611869 3.73811342
-0.09812177  5.5520278   5.81255575
2.2925616  4.39027915 6.32141389
1.74321704 4.25408649 1.94168255
-1.48359717  5.72890546  3.23124339
0.31294818 3.89613392 8.16458881
4.06539629 8.29745989 8.39238114
6.57169362 0.07110277 2.04578992
6.30024186 1.89111301 0.0490666 
2.03445074 2.01674563 3.91654335
3.95676168 8.05725568 3.90825429
4.04722068 2.46987045 5.80681405
2.58589509 8.85341321 6.6297511 
-0.29231374  7.65196767  7.73528133

0.00401517 0.00306461 0.01654047
-0.00555969 -0.01085554 -0.01245979
-0.01362307  0.00733376 -0.00763274
0.00427409 0.00284574 0.01005974
 0.00484505 -0.01054469  0.01102681
 0.00617781  0.00119036 -0.0132775 
-0.00570095 -0.00437322  0.00845877
-0.00498848  0.01292994 -0.00513567
-0.00591563 -0.00246481 -0.00505407
 0.01252147 -0.00475991 -0.01307665
-0.00229419  0.00736212  0.0032323 
-0.00342157  0.00191495 -0.00483242
-0.00435171 -0.01991227 -0.01582894
0.00923326 0.01873075 0.00824929
-0.00748969  0.00380204 -0.00239977
-0.0046845  -0.00033552  0.00368194
 0.01672566  0.00785852 -0.00401061
0.00548793 0.02311572 0.01011258
-0.01166913  0.00796073  0.0075681 
 0.00592087  0.00250055 -0.00085674
 0.00304234 -0.00993342  0.00775274
 0.01521041 -0.01475246  0.00538088
-0.00087684 -0.00027257  0.003746  
-0.00616638 -0.01029043  0.00284065
-0.01323299 -0.0171488   0.00833595
-0.00454178 -0.00135833  0.00317442
-0.00308985  0.00301414  0.00671584
-0.00149592 -0.00145147 -0.00343674
 0.00526908 -0.0177094  -0.00414573
0.02538813 0.00868885 0.01025735
 0.00123853  0.0034717  -0.0068723 
-0.01315538 -0.00664407  0.00300644
-0.00454232  0.00856354 -0.00384763
0.00264597 0.00992918 0.00134151
0.00804838 0.00155236 0.00323476
 0.00949565 -0.00460516 -0.00443123
-0.00292347  0.00793615 -0.00316437
-0.00262861  0.00754835  0.00050952
-0.00125731 -0.001708   -0.01375406
0.00306696 0.00034061 0.0121128 
-0.00484802  0.00211186 -0.00586338
-0.00353615 -0.0044191  -0.00459308
-0.010415   -0.00507581  0.00058411
 0.0084892  -0.00445099 -0.00685017
 0.00838646  0.00022185 -0.00516482
-0.00813584  0.00638469 -0.01100196
-0.00321694  0.00122997 -0.00091105
-0.00107408 -0.00471752  0.00098471
0.00554642 0.00226414 0.00741245
-0.00314392 -0.00033949  0.00347624
-0.00512258 -0.00613125 -0.00082616
-0.01125191 -0.0060517  -0.00381733
-0.0124648   0.00058661  0.00312724
 0.00483851  0.0016469  -0.00023558
 6.3940273e-03  9.2015378e-03 -1.9497777e-05
-0.00419113  0.01048722 -0.00471598
-0.00444     0.00972741 -0.00176681
 1.2067979e-06 -2.9148452e-03 -4.7515989e-03
 0.00442193 -0.00124611  0.00037167
-0.00394497  0.00275376 -0.00736758
0.01028183 0.00639616 0.0065514 
-0.002446    0.0062801   0.00307128
